NAME: random problem
TYPE: MTSP
COMMENT: MTSP problem for MRS UAV summer school
DIMENSION: 20
NUMBER_OF_ROBOTS: 2
START_TARGET_INDEXES: 1, 2
NEIGHBORHOOD_RADIUS: 2
EDGE_WEIGHT_TYPE: EUC_2D
NODE_COORD_SECTION
1 15.0 -21.0
2 -5.0 -25.0
3 8.7 14.0
4 41.3 -21.4
5 10.6 12.7
6 -17.7 11.9
7 -12.5 -19.1
8 -8.7 -5.9
9 -7.7 1.3
10 -31.0 -29.4
11 18.2 11.7
12 -28.6 -3.2
13 -5.2 -10.3
14 -30.1 -19.8
15 20.7 7.9
16 10.8 -18.1
17 -24.0 -12.3
18 21.4 19.2
19 6.9 -13.5
20 28.8 -21.0
EOF
